\ENCODING=ISO-8859-1
\Problem name: ilog.cplex

Maximize
 obj: 731 x(0)#0 + 713 x(1)#1 + 577 x(2)#2 + 931 x(3)#3 + 377 x(4)#4
      + 677 x(5)#5 + 541 x(6)#6 + 822 x(7)#7 + 709 x(8)#8 + 602 x(9)#9
      + 555 x(10)#10 + 630 x(11)#11 + 444 x(12)#12 + 939 x(13)#13
      + 606 x(14)#14 + 404 x(15)#15 + 817 x(16)#16 + 449 x(17)#17
      + 528 x(18)#18 + 878 x(19)#19 + 810 x(20)#20 + 722 x(21)#21
      + 279 x(22)#22 + 692 x(23)#23 + 842 x(24)#24 + 1000 x(25)#25
      + 888 x(26)#26 + 1089 x(27)#27 + 734 x(28)#28 + 1121 x(29)#29
      + 476 x(30)#30 + 354 x(31)#31 + 594 x(32)#32 + 977 x(33)#33
      + 624 x(34)#34 + 1110 x(35)#35 + 905 x(36)#36 + 555 x(37)#37
      + 917 x(38)#38 + 767 x(39)#39 + 753 x(40)#40 + 791 x(41)#41
      + 943 x(42)#42 + 809 x(43)#43 + 592 x(44)#44 + 323 x(45)#45
      + 1103 x(46)#46 + 848 x(47)#47 + 879 x(48)#48 + 629 x(49)#49
      + 964 x(50)#50 + 603 x(51)#51 + 474 x(52)#52 + 609 x(53)#53
      + 545 x(54)#54 + 428 x(55)#55 + 741 x(56)#56 + 553 x(57)#57
      + 683 x(58)#58 + 634 x(59)#59 + 484 x(60)#60 + 601 x(61)#61
      + 507 x(62)#62 + 827 x(63)#63 + 758 x(64)#64 + 427 x(65)#65
      + 667 x(66)#66 + 707 x(67)#67 + 639 x(68)#68 + 757 x(69)#69
      + 1038 x(70)#70 + 533 x(71)#71 + 1116 x(72)#72 + 809 x(73)#73
      + 389 x(74)#74 + 784 x(75)#75 + 922 x(76)#76 + 570 x(77)#77
      + 811 x(78)#78 + 913 x(79)#79 + 780 x(80)#80 + 674 x(81)#81
      + 636 x(82)#82 + 763 x(83)#83 + 637 x(84)#84 + 1181 x(85)#85
      + 905 x(86)#86 + 827 x(87)#87 + 1013 x(88)#88 + 519 x(89)#89
      + 548 x(90)#90 + 983 x(91)#91 + 268 x(92)#92 + 888 x(93)#93
      + 894 x(94)#94 + 624 x(95)#95 + 387 x(96)#96 + 636 x(97)#97
      + 629 x(98)#98 + 422 x(99)#99 + 831 x(100)#100 + 437 x(101)#101
      + 650 x(102)#102 + 676 x(103)#103 + 677 x(104)#104 + 433 x(105)#105
      + 756 x(106)#106 + 1074 x(107)#107 + 1078 x(108)#108 + 1029 x(109)#109
      + 527 x(110)#110 + 684 x(111)#111 + 1024 x(112)#112 + 442 x(113)#113
      + 818 x(114)#114 + 753 x(115)#115 + 731 x(116)#116 + 719 x(117)#117
      + 748 x(118)#118 + 978 x(119)#119 + 882 x(120)#120 + 572 x(121)#121
      + 720 x(122)#122 + 694 x(123)#123 + 961 x(124)#124 + 898 x(125)#125
      + 803 x(126)#126 + 915 x(127)#127 + 708 x(128)#128 + 609 x(129)#129
      + 533 x(130)#130 + 1005 x(131)#131 + 338 x(132)#132 + 616 x(133)#133
      + 585 x(134)#134 + 994 x(135)#135 + 1188 x(136)#136 + 627 x(137)#137
      + 528 x(138)#138 + 608 x(139)#139 + 733 x(140)#140 + 799 x(141)#141
      + 671 x(142)#142 + 554 x(143)#143 + 855 x(144)#144 + 1189 x(145)#145
      + 844 x(146)#146 + 526 x(147)#147 + 895 x(148)#148 + 600 x(149)#149
      + 508 x(150)#150 + 621 x(151)#151 + 973 x(152)#152 + 750 x(153)#153
      + 955 x(154)#154 + 387 x(155)#155 + 642 x(156)#156 + 480 x(157)#157
      + 404 x(158)#158 + 891 x(159)#159 + 1057 x(160)#160 + 908 x(161)#161
      + 778 x(162)#162 + 737 x(163)#163 + 687 x(164)#164 + 610 x(165)#165
      + 917 x(166)#166 + 839 x(167)#167 + 1000 x(168)#168 + 599 x(169)#169
      + 642 x(170)#170 + 712 x(171)#171 + 590 x(172)#172 + 840 x(173)#173
      + 1048 x(174)#174 + 996 x(175)#175 + 954 x(176)#176 + 983 x(177)#177
      + 676 x(178)#178 + 418 x(179)#179 + 786 x(180)#180 + 532 x(181)#181
      + 561 x(182)#182 + 965 x(183)#183 + 738 x(184)#184 + 613 x(185)#185
      + 1089 x(186)#186 + 752 x(187)#187 + 477 x(188)#188 + 772 x(189)#189
      + 592 x(190)#190 + 781 x(191)#191 + 932 x(192)#192 + 757 x(193)#193
      + 1039 x(194)#194 + 559 x(195)#195 + 716 x(196)#196 + 755 x(197)#197
      + 484 x(198)#198 + 650 x(199)#199 + 506 x(200)#200 + 792 x(201)#201
      + 1070 x(202)#202 + 700 x(203)#203 + 657 x(204)#204 + 825 x(205)#205
      + 978 x(206)#206 + 484 x(207)#207 + 740 x(208)#208 + 1041 x(209)#209
      + 468 x(210)#210 + 798 x(211)#211 + 972 x(212)#212 + 830 x(213)#213
      + 1077 x(214)#214 + 503 x(215)#215 + 584 x(216)#216 + 771 x(217)#217
      + 795 x(218)#218 + 539 x(219)#219 + 969 x(220)#220 + 811 x(221)#221
      + 1040 x(222)#222 + 960 x(223)#223 + 466 x(224)#224 + 584 x(225)#225
      + 1007 x(226)#226 + 730 x(227)#227 + 948 x(228)#228 + 799 x(229)#229
      + 890 x(230)#230 + 882 x(231)#231 + 1056 x(232)#232 + 645 x(233)#233
      + 869 x(234)#234 + 562 x(235)#235 + 953 x(236)#236 + 777 x(237)#237
      + 716 x(238)#238 + 1098 x(239)#239 + 992 x(240)#240 + 505 x(241)#241
      + 649 x(242)#242 + 981 x(243)#243 + 1114 x(244)#244 + 639 x(245)#245
      + 706 x(246)#246 + 843 x(247)#247 + 458 x(248)#248 + 935 x(249)#249
Subject To
 c1: 785 x(0)#0 + 51 x(1)#1 + 304 x(2)#2 + 860 x(3)#3 + 852 x(4)#4 + 451 x(5)#5
     + 353 x(6)#6 + 127 x(7)#7 + 642 x(8)#8 + 664 x(9)#9 + 667 x(10)#10
     + 523 x(11)#11 + 599 x(12)#12 + 433 x(13)#13 + 528 x(14)#14 + 454 x(15)#15
     + 126 x(16)#16 + 136 x(17)#17 + 498 x(18)#18 + 540 x(19)#19 + 49 x(20)#20
     + 227 x(21)#21 + 27 x(22)#22 + 542 x(23)#23 + 521 x(24)#24 + 252 x(25)#25
     + 542 x(26)#26 + 586 x(27)#27 + 676 x(28)#28 + 887 x(29)#29 + 297 x(30)#30
     + 541 x(31)#31 + 793 x(32)#32 + 510 x(33)#33 + 839 x(34)#34 + 867 x(35)#35
     + 340 x(36)#36 + 135 x(37)#37 + 88 x(38)#38 + 107 x(39)#39 + 682 x(40)#40
     + 200 x(41)#41 + 775 x(42)#42 + 499 x(43)#43 + 124 x(44)#44 + 384 x(45)#45
     + 806 x(46)#46 + 335 x(47)#47 + 755 x(48)#48 + 141 x(49)#49 + 892 x(50)#50
     + 856 x(51)#51 + 160 x(52)#52 + 365 x(53)#53 + 10 x(54)#54 + 382 x(55)#55
     + 609 x(56)#56 + 421 x(57)#57 + 985 x(58)#58 + 77 x(59)#59 + 810 x(60)#60
     + 186 x(61)#61 + 411 x(62)#62 + 681 x(63)#63 + 889 x(64)#64 + 19 x(65)#65
     + 555 x(66)#66 + 370 x(67)#67 + 304 x(68)#68 + 611 x(69)#69 + 870 x(70)#70
     + 133 x(71)#71 + 912 x(72)#72 + 728 x(73)#73 + 342 x(74)#74 + 784 x(75)#75
     + 954 x(76)#76 + 85 x(77)#77 + 210 x(78)#78 + 667 x(79)#79 + 493 x(80)#80
     + 600 x(81)#81 + 655 x(82)#82 + 255 x(83)#83 + 679 x(84)#84 + 818 x(85)#85
     + 629 x(86)#86 + 472 x(87)#87 + 996 x(88)#88 + 818 x(89)#89 + 18 x(90)#90
     + 866 x(91)#91 + 183 x(92)#92 + 232 x(93)#93 + 175 x(94)#94 + 828 x(95)#95
     + 347 x(96)#96 + 562 x(97)#97 + 932 x(98)#98 + 15 x(99)#99
     + 896 x(100)#100 + 8 x(101)#101 + 731 x(102)#102 + 221 x(103)#103
     + 430 x(104)#104 + 472 x(105)#105 + 239 x(106)#106 + 330 x(107)#107
     + 587 x(108)#108 + 881 x(109)#109 + 756 x(110)#110 + 212 x(111)#111
     + 764 x(112)#112 + 160 x(113)#113 + 91 x(114)#114 + 409 x(115)#115
     + 486 x(116)#116 + 261 x(117)#117 + 84 x(118)#118 + 356 x(119)#119
     + 82 x(120)#120 + 322 x(121)#121 + 882 x(122)#122 + 7 x(123)#123
     + 938 x(124)#124 + 760 x(125)#125 + 84 x(126)#126 + 656 x(127)#127
     + 814 x(128)#128 + 218 x(129)#129 + 97 x(130)#130 + 659 x(131)#131
     + 260 x(132)#132 + 6 x(133)#133 + 577 x(134)#134 + 443 x(135)#135
     + 635 x(136)#136 + 127 x(137)#137 + 683 x(138)#138 + 65 x(139)#139
     + 510 x(140)#140 + 436 x(141)#141 + 419 x(142)#142 + 552 x(143)#143
     + 369 x(144)#144 + 638 x(145)#145 + 384 x(146)#146 + 358 x(147)#147
     + 453 x(148)#148 + 843 x(149)#149 + 374 x(150)#150 + 706 x(151)#151
     + 571 x(152)#152 + 910 x(153)#153 + 536 x(154)#154 + 301 x(155)#155
     + 371 x(156)#156 + 59 x(157)#157 + 667 x(158)#158 + 427 x(159)#159
     + 938 x(160)#160 + 771 x(161)#161 + 987 x(162)#162 + 599 x(163)#163
     + 460 x(164)#164 + 68 x(165)#165 + 966 x(166)#166 + 535 x(167)#167
     + 999 x(168)#168 + 557 x(169)#169 + 538 x(170)#170 + 660 x(171)#171
     + 363 x(172)#172 + 196 x(173)#173 + 975 x(174)#174 + 400 x(175)#175
     + 874 x(176)#176 + 785 x(177)#177 + 293 x(178)#178 + 421 x(179)#179
     + 372 x(180)#180 + 342 x(181)#181 + 692 x(182)#182 + 786 x(183)#183
     + 704 x(184)#184 + 29 x(185)#185 + 749 x(186)#186 + 525 x(187)#187
     + 466 x(188)#188 + 736 x(189)#189 + 180 x(190)#190 + 766 x(191)#191
     + 975 x(192)#192 + 406 x(193)#193 + 257 x(194)#194 + 409 x(195)#195
     + 17 x(196)#196 + 906 x(197)#197 + 27 x(198)#198 + 289 x(199)#199
     + 602 x(200)#200 + 491 x(201)#201 + 780 x(202)#202 + 997 x(203)#203
     + 242 x(204)#204 + 92 x(205)#205 + 930 x(206)#206 + 60 x(207)#207
     + 457 x(208)#208 + 217 x(209)#209 + 763 x(210)#210 + 896 x(211)#211
     + 492 x(212)#212 + 478 x(213)#213 + 566 x(214)#214 + 916 x(215)#215
     + 328 x(216)#216 + 759 x(217)#217 + 241 x(218)#218 + 197 x(219)#219
     + 663 x(220)#220 + 879 x(221)#221 + 910 x(222)#222 + 425 x(223)#223
     + 253 x(224)#224 + 706 x(225)#225 + 140 x(226)#226 + 874 x(227)#227
     + 137 x(228)#228 + 89 x(229)#229 + 383 x(230)#230 + 857 x(231)#231
     + 524 x(232)#232 + 896 x(233)#233 + 568 x(234)#234 + 467 x(235)#235
     + 932 x(236)#236 + 441 x(237)#237 + 586 x(238)#238 + 661 x(239)#239
     + 597 x(240)#240 + 23 x(241)#241 + 385 x(242)#242 + 822 x(243)#243
     + 980 x(244)#244 + 826 x(245)#245 + 483 x(246)#246 + 848 x(247)#247
     + 595 x(248)#248 + 885 x(249)#249 <= 94426
 c2: 307 x(0)#0 + 278 x(1)#1 + 395 x(2)#2 + 897 x(3)#3 + 106 x(4)#4
     + 213 x(5)#5 + 941 x(6)#6 + 727 x(7)#7 + 516 x(8)#8 + 218 x(9)#9
     + 254 x(10)#10 + 200 x(11)#11 + 387 x(12)#12 + 751 x(13)#13 + 990 x(14)#14
     + 69 x(15)#15 + 639 x(16)#16 + 133 x(17)#17 + 439 x(18)#18 + 509 x(19)#19
     + 208 x(20)#20 + 225 x(21)#21 + 78 x(22)#22 + 922 x(23)#23 + 329 x(24)#24
     + 910 x(25)#25 + 228 x(26)#26 + 746 x(27)#27 + 428 x(28)#28 + 622 x(29)#29
     + 497 x(30)#30 + 287 x(31)#31 + 893 x(32)#32 + 472 x(33)#33 + 708 x(34)#34
     + 285 x(35)#35 + 584 x(36)#36 + 64 x(37)#37 + 205 x(38)#38 + 622 x(39)#39
     + 913 x(40)#40 + 713 x(41)#41 + 951 x(42)#42 + 72 x(43)#43 + 959 x(44)#44
     + 611 x(45)#45 + 759 x(46)#46 + 545 x(47)#47 + 376 x(48)#48 + 573 x(49)#49
     + 925 x(50)#50 + 416 x(51)#51 + 92 x(52)#52 + 601 x(53)#53 + 61 x(54)#54
     + 267 x(55)#55 + 713 x(56)#56 + 386 x(57)#57 + 548 x(58)#58 + 615 x(59)#59
     + 185 x(60)#60 + 406 x(61)#61 + 330 x(62)#62 + 84 x(63)#63 + 356 x(64)#64
     + 227 x(65)#65 + 644 x(66)#66 + 484 x(67)#67 + 119 x(68)#68 + 275 x(69)#69
     + 359 x(70)#70 + 247 x(71)#71 + 738 x(72)#72 + 535 x(73)#73 + 36 x(74)#74
     + 624 x(75)#75 + 211 x(76)#76 + 365 x(77)#77 + 895 x(78)#78 + 957 x(79)#79
     + 348 x(80)#80 + 105 x(81)#81 + 541 x(82)#82 + 529 x(83)#83 + 797 x(84)#84
     + 765 x(85)#85 + 472 x(86)#86 + 649 x(87)#87 + 465 x(88)#88 + 216 x(89)#89
     + 244 x(90)#90 + 593 x(91)#91 + 33 x(92)#92 + 191 x(93)#93 + 927 x(94)#94
     + 260 x(95)#95 + 403 x(96)#96 + 199 x(97)#97 + 699 x(98)#98 + 789 x(99)#99
     + 288 x(100)#100 + 198 x(101)#101 + 250 x(102)#102 + 857 x(103)#103
     + 512 x(104)#104 + 372 x(105)#105 + 238 x(106)#106 + 560 x(107)#107
     + 822 x(108)#108 + 836 x(109)#109 + 70 x(110)#110 + 176 x(111)#111
     + 931 x(112)#112 + 722 x(113)#113 + 127 x(114)#114 + 536 x(115)#115
     + 612 x(116)#116 + 749 x(117)#117 + 545 x(118)#118 + 525 x(119)#119
     + 698 x(120)#120 + 41 x(121)#121 + 5 x(122)#122 + 390 x(123)#123
     + 981 x(124)#124 + 635 x(125)#125 + 263 x(126)#126 + 736 x(127)#127
     + 384 x(128)#128 + 251 x(129)#129 + 287 x(130)#130 + 513 x(131)#131
     + 395 x(132)#132 + 80 x(133)#133 + 31 x(134)#134 + 876 x(135)#135
     + 635 x(136)#136 + 656 x(137)#137 + 276 x(138)#138 + 601 x(139)#139
     + 665 x(140)#140 + 210 x(141)#141 + 492 x(142)#142 + 402 x(143)#143
     + 917 x(144)#144 + 929 x(145)#145 + 908 x(146)#146 + 374 x(147)#147
     + 624 x(148)#148 + 480 x(149)#149 + 655 x(150)#150 + 750 x(151)#151
     + 404 x(152)#152 + 550 x(153)#153 + 277 x(154)#154 + 40 x(155)#155
     + 69 x(156)#156 + 912 x(157)#157 + 82 x(158)#158 + 831 x(159)#159
     + 532 x(160)#160 + 297 x(161)#161 + 513 x(162)#162 + 519 x(163)#163
     + 7 x(164)#164 + 763 x(165)#165 + 228 x(166)#166 + 897 x(167)#167
     + 922 x(168)#168 + 26 x(169)#169 + 21 x(170)#170 + 19 x(171)#171
     + 180 x(172)#172 + 725 x(173)#173 + 210 x(174)#174 + 844 x(175)#175
     + 977 x(176)#176 + 972 x(177)#177 + 635 x(178)#178 + 298 x(179)#179
     + 651 x(180)#180 + 712 x(181)#181 + 946 x(182)#182 + 652 x(183)#183
     + 687 x(184)#184 + 333 x(185)#185 + 126 x(186)#186 + 55 x(187)#187
     + 832 x(188)#188 + 632 x(189)#189 + 968 x(190)#190 + 33 x(191)#191
     + 959 x(192)#192 + 616 x(193)#193 + 938 x(194)#194 + 687 x(195)#195
     + 189 x(196)#196 + 678 x(197)#197 + 907 x(198)#198 + 143 x(199)#199
     + 302 x(200)#200 + 564 x(201)#201 + 803 x(202)#202 + 637 x(203)#203
     + 766 x(204)#204 + 519 x(205)#205 + 342 x(206)#206 + 37 x(207)#207
     + 200 x(208)#208 + 540 x(209)#209 + 211 x(210)#210 + 117 x(211)#211
     + 771 x(212)#212 + 556 x(213)#213 + 634 x(214)#214 + 424 x(215)#215
     + 299 x(216)#216 + 263 x(217)#217 + 375 x(218)#218 + 266 x(219)#219
     + 608 x(220)#220 + 921 x(221)#221 + 809 x(222)#222 + 767 x(223)#223
     + 424 x(224)#224 + 71 x(225)#225 + 345 x(226)#226 + 218 x(227)#227
     + 805 x(228)#228 + 385 x(229)#229 + 667 x(230)#230 + 311 x(231)#231
     + 583 x(232)#232 + 629 x(233)#233 + 638 x(234)#234 + 527 x(235)#235
     + 392 x(236)#236 + 318 x(237)#237 + 314 x(238)#238 + 222 x(239)#239
     + 482 x(240)#240 + 65 x(241)#241 + 230 x(242)#242 + 654 x(243)#243
     + 560 x(244)#244 + 251 x(245)#245 + 776 x(246)#246 + 426 x(247)#247
     + 103 x(248)#248 + 420 x(249)#249 <= 89840
 c3: 537 x(0)#0 + 58 x(1)#1 + 922 x(2)#2 + 341 x(3)#3 + 334 x(4)#4 + 321 x(5)#5
     + 800 x(6)#6 + 432 x(7)#7 + 438 x(8)#8 + 328 x(9)#9 + 679 x(10)#10
     + 731 x(11)#11 + 252 x(12)#12 + 728 x(13)#13 + 220 x(14)#14 + 556 x(15)#15
     + 532 x(16)#16 + 618 x(17)#17 + 218 x(18)#18 + 676 x(19)#19 + 621 x(20)#20
     + 574 x(21)#21 + 438 x(22)#22 + 187 x(23)#23 + 276 x(24)#24 + 750 x(25)#25
     + 396 x(26)#26 + 327 x(27)#27 + 730 x(28)#28 + 720 x(29)#29 + 379 x(30)#30
     + 92 x(31)#31 + 42 x(32)#32 + 830 x(33)#33 + 105 x(34)#34 + 738 x(35)#35
     + 573 x(36)#36 + 454 x(37)#37 + 607 x(38)#38 + 977 x(39)#39 + 841 x(40)#40
     + 15 x(41)#41 + 666 x(42)#42 + 766 x(43)#43 + 406 x(44)#44 + 354 x(45)#45
     + 783 x(46)#46 + 123 x(47)#47 + 111 x(48)#48 + 549 x(49)#49 + 203 x(50)#50
     + 39 x(51)#51 + 368 x(52)#52 + 134 x(53)#53 + 493 x(54)#54 + 58 x(55)#55
     + 547 x(56)#56 + 100 x(57)#57 + 613 x(58)#58 + 975 x(59)#59 + 162 x(60)#60
     + 237 x(61)#61 + 753 x(62)#62 + 847 x(63)#63 + 548 x(64)#64 + 766 x(65)#65
     + 979 x(66)#66 + 857 x(67)#67 + 632 x(68)#68 + 790 x(69)#69 + 476 x(70)#70
     + 196 x(71)#71 + 403 x(72)#72 + 602 x(73)#73 + 119 x(74)#74 + 288 x(75)#75
     + 249 x(76)#76 + 390 x(77)#77 + 485 x(78)#78 + 80 x(79)#79 + 757 x(80)#80
     + 48 x(81)#81 + 36 x(82)#82 + 912 x(83)#83 + 425 x(84)#84 + 877 x(85)#85
     + 487 x(86)#86 + 270 x(87)#87 + 540 x(88)#88 + 112 x(89)#89 + 579 x(90)#90
     + 978 x(91)#91 + 111 x(92)#92 + 838 x(93)#93 + 31 x(94)#94 + 157 x(95)#95
     + 94 x(96)#96 + 371 x(97)#97 + 633 x(98)#98 + 267 x(99)#99
     + 222 x(100)#100 + 426 x(101)#101 + 456 x(102)#102 + 551 x(103)#103
     + 195 x(104)#104 + 654 x(105)#105 + 421 x(106)#106 + 763 x(107)#107
     + 438 x(108)#108 + 132 x(109)#109 + 657 x(110)#110 + 460 x(111)#111
     + 544 x(112)#112 + 628 x(113)#113 + 205 x(114)#114 + 927 x(115)#115
     + 506 x(116)#116 + 484 x(117)#117 + 907 x(118)#118 + 927 x(119)#119
     + 600 x(120)#120 + 51 x(121)#121 + 160 x(122)#122 + 177 x(123)#123
     + 385 x(124)#124 + 557 x(125)#125 + 598 x(126)#126 + 774 x(127)#127
     + 16 x(128)#128 + 164 x(129)#129 + 419 x(130)#130 + 126 x(131)#131
     + 55 x(132)#132 + 553 x(133)#133 + 707 x(134)#134 + 252 x(135)#135
     + 672 x(136)#136 + 829 x(137)#137 + 918 x(138)#138 + 477 x(139)#139
     + 700 x(140)#140 + 811 x(141)#141 + 809 x(142)#142 + 736 x(143)#143
     + 695 x(144)#144 + 585 x(145)#145 + 925 x(146)#146 + 76 x(147)#147
     + 394 x(148)#148 + 730 x(149)#149 + 354 x(150)#150 + 341 x(151)#151
     + 62 x(152)#152 + 660 x(153)#153 + 482 x(154)#154 + 309 x(155)#155
     + 401 x(156)#156 + 594 x(157)#157 + 21 x(158)#158 + 657 x(159)#159
     + 498 x(160)#160 + 218 x(161)#161 + 416 x(162)#162 + 491 x(163)#163
     + 452 x(164)#164 + 68 x(165)#165 + 268 x(166)#166 + 481 x(167)#167
     + 516 x(168)#168 + 263 x(169)#169 + 520 x(170)#170 + 847 x(171)#171
     + 603 x(172)#172 + 827 x(173)#173 + 30 x(174)#174 + 586 x(175)#175
     + 659 x(176)#176 + 230 x(177)#177 + 141 x(178)#178 + 176 x(179)#179
     + 481 x(180)#180 + 327 x(181)#181 + 308 x(182)#182 + 31 x(183)#183
     + 486 x(184)#184 + 772 x(185)#185 + 706 x(186)#186 + 700 x(187)#187
     + 341 x(188)#188 + 548 x(189)#189 + 213 x(190)#190 + 744 x(191)#191
     + 484 x(192)#192 + 620 x(193)#193 + 969 x(194)#194 + 242 x(195)#195
     + 339 x(196)#196 + 34 x(197)#197 + 60 x(198)#198 + 863 x(199)#199
     + 863 x(200)#200 + 179 x(201)#201 + 867 x(202)#202 + 346 x(203)#203
     + 19 x(204)#204 + 517 x(205)#205 + 55 x(206)#206 + 435 x(207)#207
     + 106 x(208)#208 + 963 x(209)#209 + 133 x(210)#210 + 168 x(211)#211
     + 391 x(212)#212 + 692 x(213)#213 + 129 x(214)#214 + 263 x(215)#215
     + 585 x(216)#216 + 234 x(217)#217 + 183 x(218)#218 + 271 x(219)#219
     + 767 x(220)#220 + 187 x(221)#221 + 966 x(222)#222 + 946 x(223)#223
     + 839 x(224)#224 + 778 x(225)#225 + 990 x(226)#226 + 83 x(227)#227
     + 646 x(228)#228 + 683 x(229)#229 + 419 x(230)#230 + 70 x(231)#231
     + 535 x(232)#232 + 585 x(233)#233 + 97 x(234)#234 + 108 x(235)#235
     + 660 x(236)#236 + 80 x(237)#237 + 270 x(238)#238 + 451 x(239)#239
     + 862 x(240)#240 + 201 x(241)#241 + 373 x(242)#242 + 591 x(243)#243
     + 892 x(244)#244 + 872 x(245)#245 + 360 x(246)#246 + 812 x(247)#247
     + 757 x(248)#248 + 447 x(249)#249 <= 87512
 c4: 602 x(0)#0 + 302 x(1)#1 + 774 x(2)#2 + 448 x(3)#3 + 256 x(4)#4
     + 918 x(5)#5 + 114 x(6)#6 + 117 x(7)#7 + 814 x(8)#8 + 382 x(9)#9
     + 676 x(10)#10 + 112 x(11)#11 + 257 x(12)#12 + 910 x(13)#13 + 46 x(14)#14
     + 506 x(15)#15 + 608 x(16)#16 + 558 x(17)#17 + 7 x(18)#18 + 188 x(19)#19
     + 936 x(20)#20 + 778 x(21)#21 + 206 x(22)#22 + 607 x(23)#23 + 596 x(24)#24
     + 804 x(25)#25 + 825 x(26)#26 + 548 x(27)#27 + 586 x(28)#28 + 357 x(29)#29
     + 628 x(30)#30 + 58 x(31)#31 + 611 x(32)#32 + 433 x(33)#33 + 298 x(34)#34
     + 435 x(35)#35 + 634 x(36)#36 + 526 x(37)#37 + 317 x(38)#38 + 845 x(39)#39
     + 578 x(40)#40 + 562 x(41)#41 + 501 x(42)#42 + 121 x(43)#43 + 437 x(44)#44
     + 7 x(45)#45 + 594 x(46)#46 + 749 x(47)#47 + 832 x(48)#48 + 16 x(49)#49
     + 451 x(50)#50 + 610 x(51)#51 + 200 x(52)#52 + 232 x(53)#53 + 874 x(54)#54
     + 470 x(55)#55 + 107 x(56)#56 + 63 x(57)#57 + 29 x(58)#58 + 639 x(59)#59
     + 342 x(60)#60 + 860 x(61)#61 + 277 x(62)#62 + 571 x(63)#63 + 890 x(64)#64
     + 128 x(65)#65 + 347 x(66)#66 + 418 x(67)#67 + 69 x(68)#68 + 608 x(69)#69
     + 912 x(70)#70 + 489 x(71)#71 + 914 x(72)#72 + 409 x(73)#73 + 338 x(74)#74
     + 445 x(75)#75 + 632 x(76)#76 + 889 x(77)#77 + 605 x(78)#78 + 443 x(79)#79
     + 163 x(80)#80 + 394 x(81)#81 + 847 x(82)#82 + 586 x(83)#83 + 316 x(84)#84
     + 445 x(85)#85 + 290 x(86)#86 + 21 x(87)#87 + 633 x(88)#88 + 448 x(89)#89
     + 256 x(90)#90 + 393 x(91)#91 + 45 x(92)#92 + 487 x(93)#93 + 936 x(94)#94
     + 739 x(95)#95 + 78 x(96)#96 + 979 x(97)#97 + 466 x(98)#98 + 536 x(99)#99
     + 641 x(100)#100 + 750 x(101)#101 + 283 x(102)#102 + 593 x(103)#103
     + 485 x(104)#104 + 66 x(105)#105 + 633 x(106)#106 + 452 x(107)#107
     + 697 x(108)#108 + 596 x(109)#109 + 190 x(110)#110 + 499 x(111)#111
     + 559 x(112)#112 + 428 x(113)#113 + 966 x(114)#114 + 755 x(115)#115
     + 957 x(116)#116 + 185 x(117)#117 + 567 x(118)#118 + 116 x(119)#119
     + 704 x(120)#120 + 166 x(121)#121 + 258 x(122)#122 + 67 x(123)#123
     + 223 x(124)#124 + 383 x(125)#125 + 293 x(126)#126 + 330 x(127)#127
     + 152 x(128)#128 + 402 x(129)#129 + 806 x(130)#130 + 930 x(131)#131
     + 77 x(132)#132 + 974 x(133)#133 + 271 x(134)#134 + 486 x(135)#135
     + 684 x(136)#136 + 268 x(137)#137 + 212 x(138)#138 + 911 x(139)#139
     + 370 x(140)#140 + 144 x(141)#141 + 614 x(142)#142 + 846 x(143)#143
     + 709 x(144)#144 + 750 x(145)#145 + 573 x(146)#146 + 389 x(147)#147
     + 139 x(148)#148 + 268 x(149)#149 + 271 x(150)#150 + 92 x(151)#151
     + 878 x(152)#152 + 483 x(153)#153 + 627 x(154)#154 + 477 x(155)#155
     + 284 x(156)#156 + 437 x(157)#157 + 28 x(158)#158 + 967 x(159)#159
     + 512 x(160)#160 + 709 x(161)#161 + 590 x(162)#162 + 306 x(163)#163
     + 754 x(164)#164 + 817 x(165)#165 + 939 x(166)#166 + 815 x(167)#167
     + 935 x(168)#168 + 113 x(169)#169 + 970 x(170)#170 + 293 x(171)#171
     + 265 x(172)#172 + 757 x(173)#173 + 899 x(174)#174 + 963 x(175)#175
     + 28 x(176)#176 + 816 x(177)#177 + 813 x(178)#178 + 233 x(179)#179
     + 829 x(180)#180 + 181 x(181)#181 + 428 x(182)#182 + 837 x(183)#183
     + 907 x(184)#184 + 558 x(185)#185 + 564 x(186)#186 + 446 x(187)#187
     + 283 x(188)#188 + 975 x(189)#189 + 206 x(190)#190 + 754 x(191)#191
     + 893 x(192)#192 + 36 x(193)#193 + 813 x(194)#194 + 376 x(195)#195
     + 624 x(196)#196 + 791 x(197)#197 + 734 x(198)#198 + 476 x(199)#199
     + 157 x(200)#200 + 288 x(201)#201 + 107 x(202)#202 + 935 x(203)#203
     + 342 x(204)#204 + 170 x(205)#205 + 991 x(206)#206 + 114 x(207)#207
     + 733 x(208)#208 + 441 x(209)#209 + 367 x(210)#210 + 894 x(211)#211
     + 36 x(212)#212 + 694 x(213)#213 + 981 x(214)#214 + 557 x(215)#215
     + 881 x(216)#216 + 142 x(217)#217 + 267 x(218)#218 + 662 x(219)#219
     + 389 x(220)#220 + 606 x(221)#221 + 882 x(222)#222 + 348 x(223)#223
     + 224 x(224)#224 + 343 x(225)#225 + 608 x(226)#226 + 947 x(227)#227
     + 590 x(228)#228 + 617 x(229)#229 + 867 x(230)#230 + 919 x(231)#231
     + 1000 x(232)#232 + 72 x(233)#233 + 895 x(234)#234 + 412 x(235)#235
     + 978 x(236)#236 + 329 x(237)#237 + 985 x(238)#238 + 884 x(239)#239
     + 304 x(240)#240 + 267 x(241)#241 + 986 x(242)#242 + 917 x(243)#243
     + 720 x(244)#244 + 246 x(245)#245 + 330 x(246)#246 + 479 x(247)#247
     + 78 x(248)#248 + 812 x(249)#249 <= 95798
 c5: 314 x(0)#0 + 982 x(1)#1 + 186 x(2)#2 + 610 x(3)#3 + 32 x(4)#4 + 724 x(5)#5
     + x(6)#6 + 253 x(7)#7 + 880 x(8)#8 + 763 x(9)#9 + 133 x(10)#10
     + 989 x(11)#11 + 695 x(12)#12 + 677 x(13)#13 + 677 x(14)#14 + 410 x(15)#15
     + 911 x(16)#16 + 628 x(17)#17 + 965 x(18)#18 + 616 x(19)#19 + 737 x(20)#20
     + 337 x(21)#21 + 181 x(22)#22 + 829 x(23)#23 + 262 x(24)#24 + 13 x(25)#25
     + 953 x(26)#26 + 788 x(27)#27 + 332 x(28)#28 + 608 x(29)#29 + 578 x(30)#30
     + 273 x(31)#31 + 352 x(32)#32 + 197 x(33)#33 + 369 x(34)#34 + 779 x(35)#35
     + 320 x(36)#36 + 338 x(37)#37 + 911 x(38)#38 + 680 x(39)#39 + 374 x(40)#40
     + 505 x(41)#41 + 149 x(42)#42 + 116 x(43)#43 + 803 x(44)#44 + 232 x(45)#45
     + 367 x(46)#46 + 999 x(47)#47 + 106 x(48)#48 + 728 x(49)#49 + 903 x(50)#50
     + 465 x(51)#51 + 255 x(52)#52 + 623 x(53)#53 + 603 x(54)#54 + 254 x(55)#55
     + 91 x(56)#56 + 526 x(57)#57 + 686 x(58)#58 + 482 x(59)#59 + 761 x(60)#60
     + 739 x(61)#61 + 191 x(62)#62 + 587 x(63)#63 + 798 x(64)#64 + 964 x(65)#65
     + 515 x(66)#66 + 113 x(67)#67 + 866 x(68)#68 + 271 x(69)#69 + 443 x(70)#70
     + 198 x(71)#71 + 137 x(72)#72 + 484 x(73)#73 + 413 x(74)#74 + 110 x(75)#75
     + 928 x(76)#76 + 687 x(77)#77 + 276 x(78)#78 + 733 x(79)#79 + 432 x(80)#80
     + 951 x(81)#81 + 344 x(82)#82 + 210 x(83)#83 + 540 x(84)#84 + 681 x(85)#85
     + 307 x(86)#86 + 496 x(87)#87 + 442 x(88)#88 + 505 x(89)#89 + 519 x(90)#90
     + 998 x(91)#91 + 619 x(92)#92 + 213 x(93)#93 + 987 x(94)#94 + 875 x(95)#95
     + 442 x(96)#96 + 178 x(97)#97 + 80 x(98)#98 + 356 x(99)#99 + 15 x(100)#100
     + 315 x(101)#101 + 349 x(102)#102 + 673 x(103)#103 + 57 x(104)#104
     + 181 x(105)#105 + 583 x(106)#106 + 898 x(107)#107 + 797 x(108)#108
     + 395 x(109)#109 + 109 x(110)#110 + 29 x(111)#111 + 449 x(112)#112
     + 242 x(113)#113 + 415 x(114)#114 + 237 x(115)#115 + 974 x(116)#116
     + 460 x(117)#117 + 524 x(118)#118 + 633 x(119)#119 + 353 x(120)#120
     + 398 x(121)#121 + 630 x(122)#122 + 450 x(123)#123 + 593 x(124)#124
     + 928 x(125)#125 + 838 x(126)#126 + 921 x(127)#127 + 846 x(128)#128
     + 63 x(129)#129 + 167 x(130)#130 + 460 x(131)#131 + 261 x(132)#132
     + 813 x(133)#133 + 876 x(134)#134 + 863 x(135)#135 + 862 x(136)#136
     + 779 x(137)#137 + 424 x(138)#138 + 314 x(139)#139 + 826 x(140)#140
     + 259 x(141)#141 + 834 x(142)#142 + 199 x(143)#143 + 789 x(144)#144
     + 712 x(145)#145 + 428 x(146)#146 + 832 x(147)#147 + 935 x(148)#148
     + 234 x(149)#149 + 519 x(150)#150 + 570 x(151)#151 + 938 x(152)#152
     + 52 x(153)#153 + 913 x(154)#154 + 156 x(155)#155 + 59 x(156)#156
     + 28 x(157)#157 + 810 x(158)#158 + 566 x(159)#159 + 713 x(160)#160
     + 852 x(161)#161 + 993 x(162)#162 + 121 x(163)#163 + 558 x(164)#164
     + 197 x(165)#165 + x(166)#166 + 354 x(167)#167 + 280 x(168)#168
     + 559 x(169)#169 + 123 x(170)#170 + 469 x(171)#171 + 351 x(172)#172
     + 968 x(173)#173 + 682 x(174)#174 + 915 x(175)#175 + 156 x(176)#176
     + 874 x(177)#177 + 41 x(178)#178 + 564 x(179)#179 + 718 x(180)#180
     + 755 x(181)#181 + 284 x(182)#182 + 108 x(183)#183 + 148 x(184)#184
     + 19 x(185)#185 + 841 x(186)#186 + 485 x(187)#187 + 81 x(188)#188
     + 512 x(189)#189 + 765 x(190)#190 + 8 x(191)#191 + 747 x(192)#192
     + 105 x(193)#193 + 190 x(194)#194 + 474 x(195)#195 + 82 x(196)#196
     + 380 x(197)#197 + 268 x(198)#198 + 624 x(199)#199 + 184 x(200)#200
     + 272 x(201)#201 + 974 x(202)#202 + 147 x(203)#203 + 164 x(204)#204
     + 993 x(205)#205 + 382 x(206)#206 + 905 x(207)#207 + 791 x(208)#208
     + 639 x(209)#209 + 556 x(210)#210 + 209 x(211)#211 + 843 x(212)#212
     + 398 x(213)#213 + 843 x(214)#214 + 101 x(215)#215 + 703 x(216)#216
     + 716 x(217)#217 + 533 x(218)#218 + 477 x(219)#219 + 180 x(220)#220
     + 324 x(221)#221 + 64 x(222)#222 + 576 x(223)#223 + 260 x(224)#224
     + 85 x(225)#225 + 501 x(226)#226 + 705 x(227)#227 + 391 x(228)#228
     + 361 x(229)#229 + 181 x(230)#230 + 442 x(231)#231 + 213 x(232)#232
     + 70 x(233)#233 + 154 x(234)#234 + 411 x(235)#235 + 282 x(236)#236
     + 359 x(237)#237 + 926 x(238)#238 + 793 x(239)#239 + 309 x(240)#240
     + 624 x(241)#241 + 926 x(242)#242 + 752 x(243)#243 + 983 x(244)#244
     + 251 x(245)#245 + 715 x(246)#246 + 534 x(247)#247 + 699 x(248)#248
     + 726 x(249)#249 <= 92823
Bounds
 0 <= x(0)#0 <= 1
 0 <= x(1)#1 <= 1
 0 <= x(2)#2 <= 1
 0 <= x(3)#3 <= 1
 0 <= x(4)#4 <= 1
 0 <= x(5)#5 <= 1
 0 <= x(6)#6 <= 1
 0 <= x(7)#7 <= 1
 0 <= x(8)#8 <= 1
 0 <= x(9)#9 <= 1
 0 <= x(10)#10 <= 1
 0 <= x(11)#11 <= 1
 0 <= x(12)#12 <= 1
 0 <= x(13)#13 <= 1
 0 <= x(14)#14 <= 1
 0 <= x(15)#15 <= 1
 0 <= x(16)#16 <= 1
 0 <= x(17)#17 <= 1
 0 <= x(18)#18 <= 1
 0 <= x(19)#19 <= 1
 0 <= x(20)#20 <= 1
 0 <= x(21)#21 <= 1
 0 <= x(22)#22 <= 1
 0 <= x(23)#23 <= 1
 0 <= x(24)#24 <= 1
 0 <= x(25)#25 <= 1
 0 <= x(26)#26 <= 1
 0 <= x(27)#27 <= 1
 0 <= x(28)#28 <= 1
 0 <= x(29)#29 <= 1
 0 <= x(30)#30 <= 1
 0 <= x(31)#31 <= 1
 0 <= x(32)#32 <= 1
 0 <= x(33)#33 <= 1
 0 <= x(34)#34 <= 1
 0 <= x(35)#35 <= 1
 0 <= x(36)#36 <= 1
 0 <= x(37)#37 <= 1
 0 <= x(38)#38 <= 1
 0 <= x(39)#39 <= 1
 0 <= x(40)#40 <= 1
 0 <= x(41)#41 <= 1
 0 <= x(42)#42 <= 1
 0 <= x(43)#43 <= 1
 0 <= x(44)#44 <= 1
 0 <= x(45)#45 <= 1
 0 <= x(46)#46 <= 1
 0 <= x(47)#47 <= 1
 0 <= x(48)#48 <= 1
 0 <= x(49)#49 <= 1
 0 <= x(50)#50 <= 1
 0 <= x(51)#51 <= 1
 0 <= x(52)#52 <= 1
 0 <= x(53)#53 <= 1
 0 <= x(54)#54 <= 1
 0 <= x(55)#55 <= 1
 0 <= x(56)#56 <= 1
 0 <= x(57)#57 <= 1
 0 <= x(58)#58 <= 1
 0 <= x(59)#59 <= 1
 0 <= x(60)#60 <= 1
 0 <= x(61)#61 <= 1
 0 <= x(62)#62 <= 1
 0 <= x(63)#63 <= 1
 0 <= x(64)#64 <= 1
 0 <= x(65)#65 <= 1
 0 <= x(66)#66 <= 1
 0 <= x(67)#67 <= 1
 0 <= x(68)#68 <= 1
 0 <= x(69)#69 <= 1
 0 <= x(70)#70 <= 1
 0 <= x(71)#71 <= 1
 0 <= x(72)#72 <= 1
 0 <= x(73)#73 <= 1
 0 <= x(74)#74 <= 1
 0 <= x(75)#75 <= 1
 0 <= x(76)#76 <= 1
 0 <= x(77)#77 <= 1
 0 <= x(78)#78 <= 1
 0 <= x(79)#79 <= 1
 0 <= x(80)#80 <= 1
 0 <= x(81)#81 <= 1
 0 <= x(82)#82 <= 1
 0 <= x(83)#83 <= 1
 0 <= x(84)#84 <= 1
 0 <= x(85)#85 <= 1
 0 <= x(86)#86 <= 1
 0 <= x(87)#87 <= 1
 0 <= x(88)#88 <= 1
 0 <= x(89)#89 <= 1
 0 <= x(90)#90 <= 1
 0 <= x(91)#91 <= 1
 0 <= x(92)#92 <= 1
 0 <= x(93)#93 <= 1
 0 <= x(94)#94 <= 1
 0 <= x(95)#95 <= 1
 0 <= x(96)#96 <= 1
 0 <= x(97)#97 <= 1
 0 <= x(98)#98 <= 1
 0 <= x(99)#99 <= 1
 0 <= x(100)#100 <= 1
 0 <= x(101)#101 <= 1
 0 <= x(102)#102 <= 1
 0 <= x(103)#103 <= 1
 0 <= x(104)#104 <= 1
 0 <= x(105)#105 <= 1
 0 <= x(106)#106 <= 1
 0 <= x(107)#107 <= 1
 0 <= x(108)#108 <= 1
 0 <= x(109)#109 <= 1
 0 <= x(110)#110 <= 1
 0 <= x(111)#111 <= 1
 0 <= x(112)#112 <= 1
 0 <= x(113)#113 <= 1
 0 <= x(114)#114 <= 1
 0 <= x(115)#115 <= 1
 0 <= x(116)#116 <= 1
 0 <= x(117)#117 <= 1
 0 <= x(118)#118 <= 1
 0 <= x(119)#119 <= 1
 0 <= x(120)#120 <= 1
 0 <= x(121)#121 <= 1
 0 <= x(122)#122 <= 1
 0 <= x(123)#123 <= 1
 0 <= x(124)#124 <= 1
 0 <= x(125)#125 <= 1
 0 <= x(126)#126 <= 1
 0 <= x(127)#127 <= 1
 0 <= x(128)#128 <= 1
 0 <= x(129)#129 <= 1
 0 <= x(130)#130 <= 1
 0 <= x(131)#131 <= 1
 0 <= x(132)#132 <= 1
 0 <= x(133)#133 <= 1
 0 <= x(134)#134 <= 1
 0 <= x(135)#135 <= 1
 0 <= x(136)#136 <= 1
 0 <= x(137)#137 <= 1
 0 <= x(138)#138 <= 1
 0 <= x(139)#139 <= 1
 0 <= x(140)#140 <= 1
 0 <= x(141)#141 <= 1
 0 <= x(142)#142 <= 1
 0 <= x(143)#143 <= 1
 0 <= x(144)#144 <= 1
 0 <= x(145)#145 <= 1
 0 <= x(146)#146 <= 1
 0 <= x(147)#147 <= 1
 0 <= x(148)#148 <= 1
 0 <= x(149)#149 <= 1
 0 <= x(150)#150 <= 1
 0 <= x(151)#151 <= 1
 0 <= x(152)#152 <= 1
 0 <= x(153)#153 <= 1
 0 <= x(154)#154 <= 1
 0 <= x(155)#155 <= 1
 0 <= x(156)#156 <= 1
 0 <= x(157)#157 <= 1
 0 <= x(158)#158 <= 1
 0 <= x(159)#159 <= 1
 0 <= x(160)#160 <= 1
 0 <= x(161)#161 <= 1
 0 <= x(162)#162 <= 1
 0 <= x(163)#163 <= 1
 0 <= x(164)#164 <= 1
 0 <= x(165)#165 <= 1
 0 <= x(166)#166 <= 1
 0 <= x(167)#167 <= 1
 0 <= x(168)#168 <= 1
 0 <= x(169)#169 <= 1
 0 <= x(170)#170 <= 1
 0 <= x(171)#171 <= 1
 0 <= x(172)#172 <= 1
 0 <= x(173)#173 <= 1
 0 <= x(174)#174 <= 1
 0 <= x(175)#175 <= 1
 0 <= x(176)#176 <= 1
 0 <= x(177)#177 <= 1
 0 <= x(178)#178 <= 1
 0 <= x(179)#179 <= 1
 0 <= x(180)#180 <= 1
 0 <= x(181)#181 <= 1
 0 <= x(182)#182 <= 1
 0 <= x(183)#183 <= 1
 0 <= x(184)#184 <= 1
 0 <= x(185)#185 <= 1
 0 <= x(186)#186 <= 1
 0 <= x(187)#187 <= 1
 0 <= x(188)#188 <= 1
 0 <= x(189)#189 <= 1
 0 <= x(190)#190 <= 1
 0 <= x(191)#191 <= 1
 0 <= x(192)#192 <= 1
 0 <= x(193)#193 <= 1
 0 <= x(194)#194 <= 1
 0 <= x(195)#195 <= 1
 0 <= x(196)#196 <= 1
 0 <= x(197)#197 <= 1
 0 <= x(198)#198 <= 1
 0 <= x(199)#199 <= 1
 0 <= x(200)#200 <= 1
 0 <= x(201)#201 <= 1
 0 <= x(202)#202 <= 1
 0 <= x(203)#203 <= 1
 0 <= x(204)#204 <= 1
 0 <= x(205)#205 <= 1
 0 <= x(206)#206 <= 1
 0 <= x(207)#207 <= 1
 0 <= x(208)#208 <= 1
 0 <= x(209)#209 <= 1
 0 <= x(210)#210 <= 1
 0 <= x(211)#211 <= 1
 0 <= x(212)#212 <= 1
 0 <= x(213)#213 <= 1
 0 <= x(214)#214 <= 1
 0 <= x(215)#215 <= 1
 0 <= x(216)#216 <= 1
 0 <= x(217)#217 <= 1
 0 <= x(218)#218 <= 1
 0 <= x(219)#219 <= 1
 0 <= x(220)#220 <= 1
 0 <= x(221)#221 <= 1
 0 <= x(222)#222 <= 1
 0 <= x(223)#223 <= 1
 0 <= x(224)#224 <= 1
 0 <= x(225)#225 <= 1
 0 <= x(226)#226 <= 1
 0 <= x(227)#227 <= 1
 0 <= x(228)#228 <= 1
 0 <= x(229)#229 <= 1
 0 <= x(230)#230 <= 1
 0 <= x(231)#231 <= 1
 0 <= x(232)#232 <= 1
 0 <= x(233)#233 <= 1
 0 <= x(234)#234 <= 1
 0 <= x(235)#235 <= 1
 0 <= x(236)#236 <= 1
 0 <= x(237)#237 <= 1
 0 <= x(238)#238 <= 1
 0 <= x(239)#239 <= 1
 0 <= x(240)#240 <= 1
 0 <= x(241)#241 <= 1
 0 <= x(242)#242 <= 1
 0 <= x(243)#243 <= 1
 0 <= x(244)#244 <= 1
 0 <= x(245)#245 <= 1
 0 <= x(246)#246 <= 1
 0 <= x(247)#247 <= 1
 0 <= x(248)#248 <= 1
 0 <= x(249)#249 <= 1
Generals
 x(0)#0  x(1)#1  x(2)#2  x(3)#3  x(4)#4  x(5)#5  x(6)#6  x(7)#7  x(8)#8 
 x(9)#9  x(10)#10  x(11)#11  x(12)#12  x(13)#13  x(14)#14  x(15)#15  x(16)#16 
 x(17)#17  x(18)#18  x(19)#19  x(20)#20  x(21)#21  x(22)#22  x(23)#23 
 x(24)#24  x(25)#25  x(26)#26  x(27)#27  x(28)#28  x(29)#29  x(30)#30 
 x(31)#31  x(32)#32  x(33)#33  x(34)#34  x(35)#35  x(36)#36  x(37)#37 
 x(38)#38  x(39)#39  x(40)#40  x(41)#41  x(42)#42  x(43)#43  x(44)#44 
 x(45)#45  x(46)#46  x(47)#47  x(48)#48  x(49)#49  x(50)#50  x(51)#51 
 x(52)#52  x(53)#53  x(54)#54  x(55)#55  x(56)#56  x(57)#57  x(58)#58 
 x(59)#59  x(60)#60  x(61)#61  x(62)#62  x(63)#63  x(64)#64  x(65)#65 
 x(66)#66  x(67)#67  x(68)#68  x(69)#69  x(70)#70  x(71)#71  x(72)#72 
 x(73)#73  x(74)#74  x(75)#75  x(76)#76  x(77)#77  x(78)#78  x(79)#79 
 x(80)#80  x(81)#81  x(82)#82  x(83)#83  x(84)#84  x(85)#85  x(86)#86 
 x(87)#87  x(88)#88  x(89)#89  x(90)#90  x(91)#91  x(92)#92  x(93)#93 
 x(94)#94  x(95)#95  x(96)#96  x(97)#97  x(98)#98  x(99)#99  x(100)#100 
 x(101)#101  x(102)#102  x(103)#103  x(104)#104  x(105)#105  x(106)#106 
 x(107)#107  x(108)#108  x(109)#109  x(110)#110  x(111)#111  x(112)#112 
 x(113)#113  x(114)#114  x(115)#115  x(116)#116  x(117)#117  x(118)#118 
 x(119)#119  x(120)#120  x(121)#121  x(122)#122  x(123)#123  x(124)#124 
 x(125)#125  x(126)#126  x(127)#127  x(128)#128  x(129)#129  x(130)#130 
 x(131)#131  x(132)#132  x(133)#133  x(134)#134  x(135)#135  x(136)#136 
 x(137)#137  x(138)#138  x(139)#139  x(140)#140  x(141)#141  x(142)#142 
 x(143)#143  x(144)#144  x(145)#145  x(146)#146  x(147)#147  x(148)#148 
 x(149)#149  x(150)#150  x(151)#151  x(152)#152  x(153)#153  x(154)#154 
 x(155)#155  x(156)#156  x(157)#157  x(158)#158  x(159)#159  x(160)#160 
 x(161)#161  x(162)#162  x(163)#163  x(164)#164  x(165)#165  x(166)#166 
 x(167)#167  x(168)#168  x(169)#169  x(170)#170  x(171)#171  x(172)#172 
 x(173)#173  x(174)#174  x(175)#175  x(176)#176  x(177)#177  x(178)#178 
 x(179)#179  x(180)#180  x(181)#181  x(182)#182  x(183)#183  x(184)#184 
 x(185)#185  x(186)#186  x(187)#187  x(188)#188  x(189)#189  x(190)#190 
 x(191)#191  x(192)#192  x(193)#193  x(194)#194  x(195)#195  x(196)#196 
 x(197)#197  x(198)#198  x(199)#199  x(200)#200  x(201)#201  x(202)#202 
 x(203)#203  x(204)#204  x(205)#205  x(206)#206  x(207)#207  x(208)#208 
 x(209)#209  x(210)#210  x(211)#211  x(212)#212  x(213)#213  x(214)#214 
 x(215)#215  x(216)#216  x(217)#217  x(218)#218  x(219)#219  x(220)#220 
 x(221)#221  x(222)#222  x(223)#223  x(224)#224  x(225)#225  x(226)#226 
 x(227)#227  x(228)#228  x(229)#229  x(230)#230  x(231)#231  x(232)#232 
 x(233)#233  x(234)#234  x(235)#235  x(236)#236  x(237)#237  x(238)#238 
 x(239)#239  x(240)#240  x(241)#241  x(242)#242  x(243)#243  x(244)#244 
 x(245)#245  x(246)#246  x(247)#247  x(248)#248  x(249)#249 
End
